nNurses = 50;
nHours = 30;
minHours = 9;
maxHours = 13;
maxConsec = 6;
maxPresence = 18;
demand = [6, 10, 14, 19, 16, 11, 15, 13, 11, 6, 8, 10, 15, 15, 20, 17, 12, 11, 6, 6, 11, 11, 11, 11, 14, 15, 14, 12, 15, 18];
